(set-option :produce-models true)
(set-logic QF_UF)
(declare-fun p88() Bool)
(declare-fun p97() Bool)
(declare-fun p80() Bool)
(declare-fun p71() Bool)
(declare-fun p7() Bool)
(declare-fun p74() Bool)
(declare-fun p118() Bool)
(declare-fun p81() Bool)
(declare-fun p51() Bool)
(declare-fun p102() Bool)
(declare-fun p114() Bool)
(declare-fun p15() Bool)
(declare-fun p94() Bool)
(declare-fun p20() Bool)
(declare-fun p24() Bool)
(declare-fun p69() Bool)
(declare-fun p85() Bool)
(declare-fun p1() Bool)
(declare-fun p28() Bool)
(declare-fun p59() Bool)
(declare-fun p56() Bool)
(declare-fun p32() Bool)
(declare-fun p68() Bool)
(declare-fun p41() Bool)
(declare-fun p115() Bool)
(declare-fun p31() Bool)
(declare-fun p6() Bool)
(declare-fun p55() Bool)
(declare-fun p3() Bool)
(declare-fun p8() Bool)
(declare-fun p76() Bool)
(declare-fun p84() Bool)
(declare-fun p86() Bool)
(declare-fun p111() Bool)
(declare-fun p70() Bool)
(declare-fun p50() Bool)
(declare-fun p113() Bool)
(declare-fun p58() Bool)
(declare-fun p75() Bool)
(declare-fun p108() Bool)
(declare-fun p110() Bool)
(declare-fun p36() Bool)
(declare-fun p117() Bool)
(declare-fun p2() Bool)
(declare-fun p109() Bool)
(declare-fun p89() Bool)
(declare-fun p104() Bool)
(declare-fun p19() Bool)
(declare-fun p73() Bool)
(declare-fun p18() Bool)
(declare-fun p39() Bool)
(declare-fun p105() Bool)
(declare-fun p16() Bool)
(declare-fun p112() Bool)
(declare-fun p43() Bool)
(declare-fun p87() Bool)
(declare-fun p27() Bool)
(declare-fun p21() Bool)
(declare-fun p29() Bool)
(declare-fun p93() Bool)
(declare-fun p96() Bool)
(declare-fun p62() Bool)
(declare-fun p38() Bool)
(declare-fun p53() Bool)
(declare-fun p22() Bool)
(declare-fun p13() Bool)
(declare-fun p9() Bool)
(declare-fun p4() Bool)
(declare-fun p42() Bool)
(declare-fun p100() Bool)
(declare-fun p92() Bool)
(declare-fun p52() Bool)
(declare-fun p45() Bool)
(declare-fun p47() Bool)
(declare-fun p60() Bool)
(declare-fun p48() Bool)
(declare-fun p54() Bool)
(declare-fun p95() Bool)
(declare-fun p37() Bool)
(declare-fun p78() Bool)
(declare-fun p66() Bool)
(declare-fun p91() Bool)
(declare-fun p10() Bool)
(declare-fun p119() Bool)
(declare-fun p40() Bool)
(declare-fun p90() Bool)
(declare-fun p116() Bool)
(declare-fun p17() Bool)
(declare-fun p23() Bool)
(declare-fun p57() Bool)
(declare-fun p98() Bool)
(declare-fun p99() Bool)
(declare-fun p26() Bool)
(declare-fun p101() Bool)
(declare-fun p64() Bool)
(declare-fun p67() Bool)
(declare-fun p46() Bool)
(declare-fun p11() Bool)
(declare-fun p49() Bool)
(declare-fun p65() Bool)
(declare-fun p34() Bool)
(declare-fun p106() Bool)
(declare-fun p0() Bool)
(declare-fun p35() Bool)
(declare-fun p12() Bool)
(declare-fun p83() Bool)
(declare-fun p33() Bool)
(declare-fun p103() Bool)
(declare-fun p107() Bool)
(declare-fun p63() Bool)
(declare-fun p72() Bool)
(declare-fun p82() Bool)
(declare-fun p61() Bool)
(declare-fun p5() Bool)
(declare-fun p30() Bool)
(declare-fun p25() Bool)
(declare-fun p77() Bool)
(declare-fun p14() Bool)
(declare-fun p44() Bool)
(declare-fun p79() Bool)
(assert
(and (or (not p88) p97 p80) (or (not p71) (not p7) p74) (or (not p118) p81 p51) (or (not p74) (not p7) p102) (or (not p114) p15 p94) (or p20 (not p24) p69) (or p85 (not p1) p28) (or p114 (not p59) (not p15)) (or (not p81) p56 (not p74)) (or (not p32) p32 p118) (or (not p68) p41 p115) (or (not p31) (not p6) p1) (or p55 (not p3) p8) (or (not p76) p84 p86) (or p111 p70 (not p50)) (or p113 p81 p58) (or (not p75) p15 (not p108)) (or (not p110) p36 p117) (or p2 p109 (not p89)) (or (not p104) (not p19) (not p111)) (or p73 p18 p50) (or (not p39) (not p105) (not p104)) (or p84 p16 (not p6)) (or (not p73) p36 p114) (or (not p112) p43 (not p87)) (or p27 p118 (not p39)) (or p21 p109 (not p84)) (or p88 p29 p93) (or (not p96) (not p20) p62) (or p50 (not p38) p53) (or (not p22) (not p110) p13) (or p32 (not p9) (not p4)) (or (not p71) (not p80) (not p42)) (or p100 (not p69) p73) (or (not p92) p81 p52) (or p111 p45 p73) (or (not p47) (not p60) p52) (or (not p105) p48 p74) (or p104 (not p54) (not p84)) (or p95 p27 p16) (or (not p87) (not p37) (not p105)) (or (not p78) p111 p8) (or (not p21) p111 p102) (or p47 p13 p66) (or (not p91) p70 p10) (or p20 p59 p22) (or (not p119) (not p40) (not p91)) (or (not p86) (not p117) (not p38)) (or p90 (not p116) (not p32)) (or p59 (not p17) (not p43)) (or (not p116) (not p20) p23) (or p57 p9 p98) (or (not p27) (not p112) p99) (or p36 (not p13) (not p87)) (or (not p26) (not p8) p101) (or (not p99) (not p100) (not p105)) (or p36 p64 (not p110)) (or (not p21) p67 p51) (or p13 p46 (not p60)) (or (not p50) p112 p94) (or (not p31) p11 p49) (or (not p109) (not p24) p42) (or (not p51) (not p65) (not p118)) (or p34 (not p105) p29) (or (not p106) p71 (not p20)) (or (not p0) (not p80) p69) (or p6 p65 p57) (or p27 p35 p90) (or p10 (not p104) (not p67)) (or (not p101) (not p8) p51) (or (not p12) p83 (not p76)) (or p69 p92 (not p75)) (or p28 (not p22) p83) (or (not p18) (not p74) (not p45)) (or (not p46) (not p23) (not p23)) (or (not p27) p52 (not p16)) (or (not p113) p83 (not p33)) (or p74 (not p0) (not p47)) (or (not p35) p94 p103) (or (not p116) p40 (not p107)) (or (not p84) (not p48) p34) (or p13 p80 (not p10)) (or (not p81) (not p47) (not p21)) (or p6 p87 (not p33)) (or p50 (not p108) p51) (or p46 (not p63) (not p72)) (or (not p56) p85 p18) (or (not p117) p68 (not p103)) (or (not p117) p80 p86) (or (not p26) (not p58) p80) (or p2 (not p0) p73) (or (not p104) (not p66) (not p105)) (or p118 p81 (not p70)) (or (not p20) (not p40) (not p15)) (or p82 (not p61) p56) (or (not p115) (not p6) (not p5)) (or (not p53) (not p115) p96) (or (not p71) (not p67) (not p64)) (or (not p0) p107 p84) (or p8 (not p55) p46) (or p40 p30 (not p119)) (or (not p35) (not p19) (not p106)) (or p94 p60 (not p16)) (or (not p113) (not p97) p28) (or p5 p15 (not p3)) (or p32 (not p36) p16) (or p106 p21 (not p2)) (or (not p104) (not p87) p64) (or (not p84) (not p70) (not p30)) (or (not p49) (not p8) (not p39)) (or p33 (not p19) (not p3)) (or p15 (not p31) (not p37)) (or p108 p7 (not p92)) (or p72 p30 (not p88)) (or p36 (not p19) p112) (or (not p106) (not p0) (not p9)) (or (not p33) (not p87) (not p21)) (or p48 p116 p6) (or p105 p93 (not p9)) (or p2 p22 (not p10)) (or p96 (not p110) (not p105)) (or (not p72) (not p119) (not p65)) (or (not p25) p93 p53) (or p20 p102 p29) (or (not p96) (not p11) p64) (or p91 p48 p49) (or (not p9) p78 p24) (or (not p15) p86 (not p96)) (or (not p86) p48 (not p51)) (or p53 p114 p95) (or p23 (not p28) p59) (or p12 p76 (not p73)) (or (not p35) p42 (not p116)) (or p80 p31 (not p109)) (or p106 (not p102) (not p37)) (or p78 p95 (not p87)) (or (not p77) p52 p85) (or (not p5) p18 (not p86)) (or (not p38) (not p93) p115) (or (not p11) p83 (not p110)) (or (not p48) (not p58) (not p56)) (or p6 p71 (not p97)) (or (not p115) (not p68) p98) (or p10 (not p6) (not p96)) (or (not p87) p69 p75) (or p1 (not p14) p15) (or p1 p100 (not p37)) (or p67 p16 p94) (or (not p28) p15 p103) (or p47 (not p70) (not p20)) (or p11 p11 (not p23)) (or p54 (not p47) (not p21)) (or p113 p53 p45) (or p66 p110 p75) (or (not p44) p98 p38) (or (not p59) (not p89) p4) (or (not p89) p68 (not p84)) (or (not p70) p85 (not p18)) (or p26 p73 p9) (or p89 p51 (not p26)) (or (not p7) (not p49) p2) (or p71 p90 (not p5)) (or p22 (not p88) (not p40)) (or p105 p46 p6) (or p97 p113 (not p69)) (or (not p112) (not p31) (not p55)) (or (not p52) p99 (not p79)) (or p17 (not p34) (not p89)) (or (not p65) p89 p46) (or p76 p40 (not p3)) (or p101 p114 p30) (or (not p38) p115 p101) (or p41 (not p3) p33) (or p54 p113 p105) (or p7 (not p11) (not p32)) (or p50 p33 p48) (or (not p25) (not p86) (not p44)) (or p107 (not p61) p36) (or (not p101) (not p45) (not p22)) (or p100 (not p75) (not p107)) (or p39 p48 p115) (or (not p111) (not p10) (not p73)) (or p40 (not p59) p63) (or p87 (not p3) (not p43)) (or p51 p74 p21) (or p29 (not p25) p34) (or (not p2) p26 p110) (or (not p50) p70 p50) (or (not p77) p0 (not p109)) (or (not p1) p67 (not p16)) (or (not p42) p64 (not p8)) (or p21 p114 p24) (or p108 p36 p32) (or p96 (not p55) p104) (or (not p49) p42 p48) (or (not p77) p10 p66) (or p69 p14 p6) (or (not p95) p39 (not p69)) (or p104 (not p73) (not p49)) (or p86 (not p94) p36) (or (not p29) p26 (not p32)) (or p41 p105 (not p43)) (or (not p68) p32 p95) (or p46 p100 p58) (or p115 p109 p54) (or (not p18) p66 (not p108)) (or (not p39) p102 p90) (or (not p50) (not p75) p89) (or p70 (not p61) (not p106)) (or (not p18) (not p86) p115) (or (not p67) p75 p88) (or p81 (not p94) (not p68)) (or (not p55) (not p13) p93) (or p44 p77 p94) (or p6 p9 (not p29)) (or p14 (not p38) p34) (or (not p115) (not p10) p45) (or p12 p7 (not p74)) (or (not p84) p10 p26) (or p75 p57 p12) (or (not p56) p20 p80) (or p23 p30 (not p103)) (or (not p86) p17 p24) (or p72 (not p71) (not p28)) (or (not p91) p76 (not p57)) (or (not p92) p76 (not p2)) (or (not p85) p103 (not p87)) (or p66 (not p99) p56) (or p19 (not p70) p13) (or p73 (not p43) p97) (or (not p66) p19 p63) (or p0 (not p103) p45) (or (not p52) (not p99) p113) (or (not p72) (not p106) (not p26)) (or p13 (not p85) (not p98)) (or (not p112) (not p0) p48) (or (not p27) p61 (not p106)) (or p1 p103 (not p21)) (or (not p104) p87 (not p67)) (or (not p95) p89 (not p79)) (or (not p97) p24 p17) (or (not p74) (not p54) (not p8)) (or p8 (not p98) p31) (or (not p22) p28 p46) (or p62 (not p74) p99) (or (not p89) p41 p97) (or (not p7) (not p42) p54) (or (not p82) p100 (not p77)) (or (not p93) (not p87) p81) (or (not p51) p2 p6) (or p80 (not p38) p30) (or (not p76) p94 (not p38)) (or (not p47) (not p35) (not p73)) (or (not p109) (not p35) p9) (or p104 (not p55) p77) (or (not p46) p61 p91) (or (not p38) (not p28) p97) (or (not p47) p117 p40) (or p5 p90 p25) (or p110 p5 (not p37)) (or (not p55) p68 p84) (or p89 (not p47) p57) (or p62 (not p109) (not p110)) (or p19 p112 (not p0)) (or p115 (not p47) p67) (or p6 p102 p35) (or p87 (not p75) (not p50)) (or p94 (not p117) (not p28)) (or p83 (not p7) (not p18)) (or p94 p82 (not p8)) (or p14 p44 p80) (or (not p52) (not p23) p118) (or (not p15) (not p41) p69) (or (not p88) (not p105) p6) (or p31 (not p69) (not p103)) (or (not p104) p82 p93) (or p82 p84 p70) (or p12 (not p115) p109) (or p96 (not p88) (not p30)) (or p68 (not p56) p96) (or p52 p22 p61) (or (not p102) (not p38) p67) (or (not p90) p65 (not p38)) (or p103 p97 p19) (or (not p37) (not p26) p100) (or p31 p12 (not p52)) (or p77 (not p30) (not p76)) (or (not p90) p106 p57) (or (not p73) (not p50) (not p116)) (or (not p78) p56 (not p14)) (or (not p78) p73 (not p114)) (or (not p3) p5 (not p36)) (or (not p61) p108 (not p96)) (or (not p92) p95 p97) (or p39 p83 p105) (or p68 (not p94) p74) (or p22 p108 (not p92)) (or p78 p34 p107) (or p51 (not p79) (not p37)) (or p14 (not p38) (not p113)) (or (not p25) p118 p82) (or p52 (not p8) p105) (or (not p5) (not p112) (not p116)) (or p6 (not p81) (not p11)) (or (not p35) p22 p27) (or (not p110) (not p34) (not p42)) (or p92 (not p1) p76) (or (not p41) p114 p76) (or (not p110) (not p78) (not p13)) (or p119 p80 (not p47)) (or p37 p25 p63) (or p107 (not p71) (not p110)) (or p85 (not p75) p86) (or (not p50) (not p40) p101) (or p69 p16 p46) (or p1 p31 (not p15)) (or p21 p4 (not p28)) (or (not p24) (not p22) p67) (or p73 p90 (not p80)) (or (not p56) p0 (not p42)) (or (not p114) p72 (not p22)) (or p76 (not p22) (not p15)) (or (not p19) (not p21) (not p22)) (or (not p87) p54 (not p42)) (or (not p106) p91 (not p4)) (or (not p38) (not p31) (not p75)) (or (not p3) p81 (not p44)) (or (not p103) p61 (not p77)) (or (not p104) (not p12) (not p7)) (or p12 (not p113) (not p118)) (or (not p63) p36 (not p29)) (or (not p106) (not p104) p76) (or (not p8) (not p30) (not p102)) (or (not p96) p6 (not p45)) (or (not p113) (not p7) (not p59)) (or (not p96) p42 p32) (or (not p98) (not p105) p45) (or p75 (not p69) (not p112)) (or p4 (not p10) p57) (or (not p38) p18 (not p63)) (or p78 p20 (not p66)) (or (not p70) p10 (not p49)) (or p74 (not p8) (not p112)) (or (not p113) p5 p13) (or (not p28) p106 p102) (or p50 p27 (not p0)) (or p93 (not p111) p74) (or p39 p27 (not p103)) (or (not p109) (not p117) (not p45)) (or (not p94) (not p78) p42) (or (not p87) (not p119) (not p94)) (or p94 p116 (not p51)) (or (not p107) (not p3) p108) (or p22 (not p62) p105) (or p25 p69 (not p112)) (or (not p61) p4 (not p98)) (or p80 (not p4) (not p21)) (or (not p67) (not p67) p109) (or p4 (not p75) p100) (or (not p63) (not p105) (not p70)) (or (not p94) p53 p65) (or p21 p64 (not p112)) (or (not p95) p79 p95) (or (not p104) p102 (not p40)) (or p68 (not p60) (not p33)) (or p30 p78 (not p55)) (or p110 (not p22) p66) (or p31 p96 (not p50)) (or p0 p119 (not p33)) (or p112 (not p23) (not p4)) (or p66 (not p115) (not p100)) (or (not p115) (not p13) (not p115)) (or (not p110) p27 (not p114)) (or p55 p119 p41) (or p99 (not p81) (not p98)) (or (not p2) (not p37) p64) (or p116 (not p54) p99) (or (not p74) p100 p32) (or (not p79) (not p82) (not p6)) (or (not p4) p114 (not p23)) (or p88 (not p34) p29) (or (not p43) p54 p102) (or p61 (not p97) (not p89)) (or (not p45) p57 (not p102)) (or (not p72) p39 p97) (or (not p102) (not p49) (not p6)) (or p59 p115 (not p62)) (or p8 (not p115) p1) (or (not p101) p43 (not p7)) (or p6 p47 p106) (or p95 p78 p68) (or p9 p109 (not p2)) (or p60 (not p105) p20) (or (not p12) (not p74) (not p28)) (or (not p30) p100 p55) (or p106 (not p60) p2) (or (not p33) p91 p39) (or (not p49) p118 p35) (or (not p79) p87 (not p44)) (or p23 (not p93) p37) (or p33 p28 (not p17)) (or (not p27) p76 (not p50)) (or (not p51) p73 p111) (or p28 p48 p36) (or p59 p86 p25) (or (not p100) p58 (not p82)) (or (not p60) (not p16) (not p59)) (or (not p99) p5 p3) (or p10 p69 (not p72)) (or p86 p55 (not p104)) (or (not p110) (not p68) p5) (or p51 p95 p50) (or (not p19) p15 (not p62)) (or p44 (not p100) p26) (or (not p102) p21 (not p45)) (or p51 (not p117) (not p56)) (or p46 (not p104) p33) (or (not p10) (not p62) p35) (or (not p101) p52 (not p66)) (or p86 p56 (not p83)) (or (not p116) (not p101) (not p109)) (or p5 (not p87) (not p110)) (or p57 p85 (not p89)) (or (not p96) p7 p83) (or p101 (not p29) (not p93)) (or (not p61) (not p116) (not p23)) (or (not p16) p118 (not p89)) (or (not p110) (not p118) p118) (or p11 p79 p22) (or p71 p88 p110) (or p90 (not p56) (not p94)) (or (not p11) (not p5) p6) (or (not p64) p92 p19) (or (not p55) p103 (not p5)) (or p74 (not p24) p64) (or (not p5) (not p86) (not p13)) (or (not p31) p66 p58) (or p83 p118 p105) (or p16 (not p73) (not p87)) (or p7 (not p119) p66) (or (not p34) (not p98) p9) (or (not p3) p39 (not p77)) (or (not p14) p65 p13) (or (not p82) (not p46) (not p109)) (or p24 p6 p13) (or (not p93) p2 (not p34)) (or (not p85) (not p22) (not p31)) (or (not p108) (not p42) (not p117)) (or (not p81) p90 (not p40)) (or p45 p118 p44) (or (not p28) (not p83) p42) (or (not p82) (not p110) p43) (or p113 (not p118) (not p4)) (or p50 (not p119) p30) (or (not p28) (not p108) p38) (or p89 (not p105) (not p79)) (or p6 (not p69) (not p33)) (or p60 p73 p109) (or p106 (not p2) (not p25)) (or p119 (not p89) (not p71)) (or (not p15) p29 (not p16)) (or (not p98) p114 (not p51)) (or p57 (not p20) p3) (or p87 (not p46) (not p7)) (or p57 p3 (not p3)) (or p80 (not p108) (not p18)) (or p27 (not p59) p97) (or p51 (not p35) p67) (or p40 (not p82) p90) (or p94 (not p33) p49) (or p45 p105 p56) (or (not p51) (not p0) (not p97)) (or p15 p80 (not p83)) (or (not p116) (not p97) p43) (or p44 p39 p48) (or (not p19) (not p67) p91) (or (not p29) (not p45) p117) (or p89 (not p102) (not p27)) (or (not p0) p0 p74) (or p11 p101 (not p2)) (or p69 p25 (not p18)) (or p68 (not p72) p44) (or p51 p94 (not p8)) (or (not p112) (not p89) (not p69)) (or p72 p1 p24) (or (not p10) (not p27) (not p21)) (or (not p37) (not p71) (not p95)) (or p39 (not p79) (not p80)) (or (not p27) (not p21) p35) (or p6 p118 p90) (or p71 (not p92) (not p83)) (or p16 (not p39) (not p81)) (or p88 p48 (not p18)) (or p31 p46 (not p54)) (or (not p82) (not p31) p63) (or (not p80) p18 (not p101)) (or p10 p77 (not p51)) (or (not p67) (not p64) p37) (or (not p75) (not p23) p63) (or p8 (not p35) p57) (or p81 (not p51) p28) (or p9 p77 (not p70)) (or (not p77) p2 p61) (or (not p27) (not p83) p52) (or p102 (not p93) p48) (or p117 (not p80) (not p54)) (or p36 (not p24) p92) (or p44 (not p10) (not p9)) (or p13 p40 p19) (or (not p117) p74 p95) (or p25 (not p7) (not p83)) (or p101 (not p18) (not p73)) (or (not p93) p25 (not p99)) (or (not p41) p38 (not p64)) (or p102 p46 (not p81)) (or p91 (not p69) p86) (or p30 p74 p76) (or (not p56) (not p23) (not p55)) (or p112 p26 (not p89)) (or (not p87) (not p31) p28) (or (not p23) p81 (not p7)) (or (not p46) p54 p10) (or p44 (not p95) (not p43)) (or (not p55) (not p111) (not p73)) (or (not p9) (not p109) (not p119)) (or p41 (not p106) (not p75)) (or p79 (not p37) (not p47)) (or (not p34) p95 (not p77)) (or (not p13) (not p38) p96) (or p59 p39 p66) (or (not p117) p64 (not p7)) (or (not p17) (not p27) p84) (or p46 p96 p53) (or (not p50) p56 p52) (or (not p62) (not p90) p71) (or p34 (not p38) (not p79)) (or p11 (not p3) (not p118)) (or (not p19) (not p32) (not p9)) (or (not p96) (not p64) p27) (or (not p32) p48 p2) (or (not p11) (not p50) (not p115)) (or (not p14) (not p12) (not p93)) (or p117 p55 (not p85)) (or p37 (not p68) (not p96)) (or p30 (not p30) p80) (or p50 (not p108) p116) (or p82 (not p50) p9) (or p49 p71 p90) (or p45 p14 (not p85)) (or p66 (not p72) p97) (or p9 (not p57) (not p80)) (or p36 (not p43) (not p21)) (or p47 (not p21) (not p57)) (or p40 (not p6) (not p72)) (or p99 (not p0) (not p61)) (or p79 p34 p43) (or p96 p95 (not p100)) (or (not p46) p24 (not p119)) (or (not p77) p34 p47) (or p8 (not p7) (not p105)) (or (not p79) p81 (not p63)) (or (not p20) (not p68) p12) (or (not p38) (not p57) (not p107)) (or p75 p94 p87) (or p83 (not p77) (not p113)) (or (not p11) (not p21) p96) (or p50 (not p108) (not p108)) (or p13 p67 p78) (or p73 (not p47) p71) (or p97 (not p103) (not p58)) (or p118 p77 (not p114)) (or (not p27) p72 (not p59)) (or p70 (not p71) (not p64)) (or p29 (not p46) p86) (or p40 p100 p117) (or (not p96) (not p81) p25) (or (not p116) (not p107) p11) (or p107 (not p79) p12) (or p11 p12 (not p108)) (or (not p117) (not p106) (not p108)) (or p43 p64 (not p47)) (or p2 (not p32) (not p53)) (or p19 (not p25) (not p86)) (or p107 (not p113) p105) (or p62 p92 p109) (or p17 (not p18) p9) (or (not p3) p67 (not p116)) (or (not p27) p102 (not p58)) (or p64 p67 (not p45)) (or (not p64) p94 (not p37)) (or p0 (not p67) (not p33)) (or p62 p118 (not p7)) (or p75 (not p60) (not p91)) (or (not p106) p28 p112) (or (not p9) p95 (not p0)) (or (not p56) (not p112) (not p119)) (or p108 (not p87) (not p84)) (or p65 p88 p85) (or p22 (not p28) p0))
)
(check-sat)
(get-model)
